1000 1 29 1001 1001 1001 1001 1001 1001 1001 1001 1001 1001 1001 1001 1001 1001 1001 1001 1001 1001 1001 1001 1001 1001 1001 1001 1001 1001 1001 1001 1001 1001 1001 1001 1001 1001 1001 1001 1001 1001 1001 1001 1001 1001 1001 1001 1001 1001 1001 1001 1001 1001 1001 1001 1001 1001 1001 1001 1001 1001 -12 172 712 8 720 999 555 936 641 453 188 265 814 917 663 327 268 91 274 926 984 284 831 965 247 688 1 808 287 803 240 283 545 524 506 528 -97 713 804 829 141 526 441 511 28 783 964 836 974 769 142 567 872 194 648 797 628 919 114 751 237 300 816 261 341 948 314 585 239 332 781 -98 119 921 767 318 613 540 891 397 535 220 401 538 196 923 373 191 742 548 795 880 290 866 90 425 612 344 571 101 25 642 50 949 997 -170 296 111 590 867 513 890 236 559 542 900 292 680 126 23 794 282 61 519 348 146 584 312 80 310 99 115 118 31 335 731 577 157 521 149 -241 718 905 391 647 937 255 758 811 398 915 57 429 234 162 340 71 24 750 754 741 358 198 51 868 412 517 734 317 248 841 464 947 152 698 644 -280 690 389 745 654 213 729 64 662 267 543 756 723 570 487 717 136 813 321 69 980 581 173 616 75 646 402 349 276 163 934 819 793 946 384 645 368 249 -309 210 406 575 437 415 219 438 58 843 838 343 204 488 924 547 837 773 771 562 578 788 380 266 920 761 140 216 454 899 203 869 752 732 -356 823 967 417 739 639 271 798 743 901 660 430 325 573 591 603 174 724 56 778 330 482 634 84 128 328 529 844 902 975 675 486 976 686 387 -382 108 903 875 504 943 337 777 944 551 855 694 850 563 666 994 627 424 316 228 557 306 289 122 696 60 476 740 102 532 466 930 817 842 150 881 308 -383 252 183 554 421 405 94 586 431 597 104 27 277 166 599 442 176 59 631 973 668 755 202 728 35 884 882 671 865 959 -408 88 922 932 143 531 738 224 861 63 846 896 898 44 427 254 546 295 365 211 534 323 351 395 329 968 461 414 708 452 447 -445 942 733 509 394 130 580 230 359 303 446 106 269 385 159 362 889 195 400 26 854 682 347 536 169 939 53 246 185 916 649 221 702 89 602 -460 419 730 364 991 820 117 500 479 178 874 242 434 735 463 133 840 549 361 175 301 558 456 489 120 366 887 43 672 208 353 264 -472 420 610 291 539 970 376 635 601 684 19 560 579 533 748 709 633 336 2 153 527 36 68 615 503 830 324 215 637 478 -495 34 49 155 134 471 468 772 908 818 824 171 485 791 583 396 144 986 725 65 832 192 30 766 372 410 954 179 439 48 66 796 81 139 423 -505 449 422 963 313 281 914 605 17 121 480 484 992 275 985 721 677 29 658 493 273 768 787 158 151 407 620 643 933 553 18 550 683 638 393 983 -561 62 229 459 786 257 462 76 426 307 251 895 167 763 199 129 33 802 502 695 467 360 87 418 747 657 377 112 458 977 508 609 719 82 873 911 -589 835 792 993 298 670 322 520 569 320 995 375 469 286 982 870 4 411 852 556 514 85 594 498 123 966 624 714 497 931 492 46 611 667 293 -617 77 749 455 499 164 201 909 70 678 124 876 918 685 465 451 894 701 416 910 700 11 244 259 706 381 912 443 849 404 319 1000 435 704 779 -650 457 935 518 107 576 598 165 863 727 223 294 607 510 693 205 331 655 496 52 952 515 864 715 297 621 770 477 370 409 759 490 302 -651 342 73 350 352 67 827 78 96 746 652 491 187 960 390 184 494 907 403 374 20 764 245 775 958 47 807 962 182 15 600 676 -659 801 822 877 760 137 181 608 10 892 753 217 707 664 762 288 703 972 232 83 125 799 263 226 145 235 956 207 160 45 225 432 913 473 -665 582 189 587 14 862 474 604 285 987 971 623 103 481 886 525 736 848 270 955 135 897 893 74 636 231 691 334 629 21 315 40 593 168 -673 379 197 776 640 38 258 95 572 951 278 253 206 250 857 809 856 209 941 444 127 371 888 574 711 904 780 765 299 386 177 222 433 388 940 596 -689 110 697 86 339 132 475 825 413 669 512 501 566 262 148 541 800 436 54 879 79 537 523 357 679 16 93 311 260 507 805 105 722 674 -757 957 345 530 450 988 516 953 233 5 885 147 853 726 989 789 72 815 369 32 785 681 774 990 392 131 661 592 883 355 190 871 699 13 588 -826 279 929 338 858 625 9 981 810 238 448 630 218 305 227 744 927 42 782 614 851 969 653 998 200 847 326 692 834 354 687 979 845 428 878 -833 138 363 821 622 606 7 212 109 483 978 156 92 790 193 632 996 938 186 928 737 22 950 568 39 710 304 619 154 6 113 784 522 626 565 -859 346 180 41 37 656 214 116 806 716 839 961 552 3 705 243 55 860 595 544 161 828 440 272 564 100 618 378 812 470 906 367 399 925 256 945 333 0 
29.000000 -0.475488 3782.014368 3782.489856 -0.129474 3636.613667 3636.743141 -0.071068 3545.941236 3546.012304 -0.834630 3668.099333 3668.933963 -0.954540 3887.856632 3888.811172 -23.086793 3889.055764 3912.142557 -0.096118 3716.706635 3716.802753 199.736211 3665.411396 3465.675185 -0.316955 3861.993173 3862.310128 -0.647901 3276.069661 3276.717562 -0.384632 3442.560226 3442.944858 -0.060551 3681.751816 3681.812367 -0.038274 3579.827033 3579.865307 -0.677332 3093.657698 3094.335030 -0.139490 3841.435500 3841.574990 -87.709749 3810.892834 3898.602583 -0.816749 3889.089899 3889.906648 -0.817739 3693.484784 3694.302523 -186.601179 3625.842946 3812.444125 -0.409475 3687.263441 3687.672916 -0.815273 3267.258943 3268.074216 -0.875911 3824.976145 3825.852056 16.769104 3733.963906 3717.194802 -0.812412 3899.880935 3900.693347 -0.002994 3717.940832 3717.943826 -0.200821 3851.410687 3851.611508 -170.751281 3606.085485 3776.836766 -0.496835 3852.615854 3853.112689 15.057708 3878.782705 3863.724997 1000.000000 0.000000 0.000000 0.000000 0.000000 0.000000 0.000000 0.000000 0.000000 0.000000 0.000000 0.000000 0.000000 0.000000 0.000000 0.000000 0.000000 0.000000 0.000000 0.000000 0.000000 0.000000 0.000000 0.000000 0.000000 0.000000 0.000000 0.000000 0.000000 0.000000 0.000000 0.000000 0.000000 0.000000 0.000000 0.000000 0.000000 0.000000 0.000000 0.000000 0.000000 0.000000 0.000000 0.000000 0.000000 0.000000 0.000000 0.000000 0.000000 0.000000 0.000000 0.000000 0.000000 0.000000 0.000000 0.000000 0.000000 0.000000 0.000000 0.000000 0.000000 0.000000 0.000000 0.000000 0.000000 0.000000 0.000000 0.000000 0.000000 0.000000 0.000000 0.000000 0.000000 0.000000 0.000000 0.000000 0.000000 0.000000 0.000000 0.000000 0.000000 0.000000 0.000000 0.000000 0.000000 0.000000 0.000000 0.000000 0.000000 0.000000 0.000000 0.000000 0.000000 0.000000 0.000000 0.000000 0.000000 0.000000 0.000000 0.000000 0.000000 0.000000 0.000000 0.000000 0.000000 0.000000 0.000000 0.000000 0.000000 0.000000 0.000000 0.000000 0.000000 0.000000 0.000000 0.000000 0.000000 0.000000 0.000000 0.000000 0.000000 0.000000 0.000000 0.000000 0.000000 0.000000 0.000000 0.000000 0.000000 0.000000 0.000000 0.000000 0.000000 0.000000 0.000000 0.000000 0.000000 0.000000 0.000000 0.000000 0.000000 0.000000 0.000000 0.000000 0.000000 0.000000 0.000000 0.000000 0.000000 0.000000 0.000000 0.000000 0.000000 0.000000 0.000000 0.000000 0.000000 0.000000 0.000000 0.000000 0.000000 0.000000 0.000000 0.000000 0.000000 0.000000 0.000000 0.000000 0.000000 0.000000 0.000000 0.000000 0.000000 0.000000 0.000000 0.000000 0.000000 0.000000 0.000000 0.000000 0.000000 0.000000 0.000000 0.000000 0.000000 0.000000 0.000000 0.000000 0.000000 0.000000 0.000000 0.000000 0.000000 0.000000 0.000000 0.000000 0.000000 0.000000 0.000000 0.000000 0.000000 0.000000 0.000000 0.000000 0.000000 0.000000 0.000000 0.000000 0.000000 0.000000 0.000000 0.000000 0.000000 0.000000 0.000000 0.000000 0.000000 0.000000 0.000000 0.000000 0.000000 0.000000 0.000000 0.000000 0.000000 0.000000 0.000000 0.000000 0.000000 0.000000 0.000000 0.000000 0.000000 0.000000 0.000000 0.000000 0.000000 0.000000 0.000000 0.000000 0.000000 0.000000 0.000000 0.000000 0.000000 0.000000 0.000000 0.000000 0.000000 0.000000 0.000000 0.000000 0.000000 0.000000 0.000000 0.000000 0.000000 0.000000 0.000000 0.000000 0.000000 0.000000 0.000000 0.000000 0.000000 0.000000 0.000000 0.000000 0.000000 0.000000 0.000000 0.000000 0.000000 0.000000 22.845737 0.000000 0.000000 0.000000 0.000000 0.000000 0.000000 0.000000 0.000000 0.000000 0.000000 0.000000 0.000000 0.000000 0.000000 0.000000 0.000000 0.000000 0.000000 0.000000 0.000000 0.000000 0.000000 0.000000 0.000000 0.000000 0.000000 0.000000 0.000000 0.000000 0.000000 0.000000 0.000000 0.000000 0.000000 0.000000 0.000000 0.000000 0.000000 0.000000 0.000000 0.000000 0.000000 0.000000 0.000000 0.000000 0.000000 0.000000 0.000000 0.000000 0.000000 0.000000 0.000000 0.000000 0.000000 0.000000 0.000000 0.000000 0.000000 0.000000 0.000000 0.000000 0.000000 0.000000 0.000000 0.000000 0.000000 0.000000 0.000000 0.000000 0.000000 0.000000 0.000000 0.000000 0.000000 0.000000 0.000000 0.000000 0.000000 0.000000 0.000000 0.000000 0.000000 0.000000 0.000000 0.000000 0.000000 0.000000 0.000000 0.000000 0.000000 0.000000 0.000000 0.000000 0.000000 0.000000 0.000000 0.000000 0.000000 0.000000 0.000000 0.000000 0.000000 0.000000 0.000000 0.000000 0.000000 0.000000 0.000000 0.000000 0.000000 0.000000 0.000000 0.000000 0.000000 0.000000 0.000000 0.000000 0.000000 0.000000 0.000000 0.000000 0.000000 0.000000 0.000000 0.000000 0.000000 0.000000 0.000000 0.000000 0.000000 0.000000 0.000000 0.000000 0.000000 0.000000 0.000000 0.000000 0.000000 0.000000 0.000000 0.000000 0.000000 0.000000 0.000000 0.000000 0.000000 0.000000 0.000000 0.000000 0.000000 0.000000 0.000000 0.000000 0.000000 0.000000 0.000000 0.000000 0.000000 0.000000 0.000000 0.000000 0.000000 0.000000 0.000000 0.000000 0.000000 0.000000 0.000000 0.000000 0.000000 0.000000 0.000000 0.000000 0.000000 0.000000 0.000000 0.000000 0.000000 0.000000 0.000000 0.000000 0.000000 0.000000 0.000000 0.000000 0.000000 0.000000 0.000000 0.000000 0.000000 0.000000 0.000000 0.000000 0.000000 0.000000 0.000000 0.000000 0.000000 0.000000 0.000000 0.000000 0.000000 0.000000 0.000000 0.000000 0.000000 0.000000 0.000000 0.000000 0.000000 0.000000 0.000000 0.000000 0.000000 0.000000 0.000000 0.000000 0.000000 0.000000 0.000000 0.000000 0.000000 0.000000 0.000000 0.000000 0.000000 0.000000 0.000000 0.000000 0.000000 0.000000 0.000000 0.000000 0.000000 0.000000 0.000000 0.000000 0.000000 0.000000 0.000000 0.000000 0.000000 0.000000 0.000000 0.000000 0.000000 0.000000 0.000000 0.000000 0.000000 0.000000 0.000000 0.000000 0.000000 0.000000 0.000000 0.000000 0.000000 0.000000 0.000000 0.000000 0.000000 0.000000 0.000000 0.000000 0.000000 0.000000 0.000000 0.000000 0.000000 0.000000 0.000000 0.000000 0.000000 0.000000 0.000000 0.000000 0.000000 0.000000 0.000000 0.000000 0.000000 0.000000 0.000000 0.000000 0.000000 0.000000 0.000000 0.000000 0.000000 0.000000 0.000000 0.000000 0.000000 0.000000 0.000000 0.000000 0.000000 0.000000 0.000000 0.000000 0.000000 0.000000 0.000000 0.000000 0.000000 0.000000 0.000000 0.000000 0.000000 0.000000 0.000000 0.000000 0.000000 0.000000 0.000000 0.000000 0.000000 0.000000 0.000000 0.000000 0.000000 0.000000 0.000000 0.000000 0.000000 0.000000 0.000000 0.000000 0.000000 0.000000 0.000000 0.000000 0.000000 0.000000 0.000000 0.000000 0.000000 0.000000 0.000000 0.000000 0.000000 0.000000 0.000000 0.000000 0.000000 0.000000 0.000000 0.000000 0.000000 0.000000 0.000000 0.000000 0.000000 0.000000 0.000000 0.000000 0.000000 0.000000 0.000000 0.000000 0.000000 0.000000 0.000000 0.000000 0.000000 0.000000 0.000000 0.000000 0.000000 0.000000 0.000000 0.000000 0.000000 0.000000 0.000000 0.000000 0.000000 0.000000 0.000000 0.000000 0.000000 0.000000 0.000000 0.000000 0.000000 0.000000 0.000000 0.000000 0.000000 0.000000 0.000000 0.000000 0.000000 0.000000 0.000000 0.000000 0.000000 0.000000 0.000000 0.000000 0.000000 0.000000 0.000000 0.000000 0.000000 0.000000 0.000000 0.000000 0.000000 0.000000 0.000000 0.000000 0.000000 0.000000 0.000000 0.000000 0.000000 0.000000 0.000000 0.000000 0.000000 0.000000 0.000000 0.000000 0.000000 0.000000 0.000000 0.000000 0.000000 0.000000 0.000000 0.000000 0.000000 0.000000 0.000000 0.000000 0.000000 0.000000 0.000000 0.000000 0.000000 0.000000 0.000000 0.000000 0.000000 0.000000 0.000000 0.000000 0.000000 0.000000 0.000000 0.000000 0.000000 0.000000 0.000000 0.000000 0.000000 0.000000 0.000000 0.000000 0.000000 0.000000 0.000000 0.000000 0.000000 0.000000 0.000000 0.000000 0.000000 0.000000 0.000000 0.000000 0.000000 0.000000 0.000000 0.000000 0.000000 0.000000 0.000000 0.000000 0.000000 0.000000 0.000000 0.000000 0.000000 0.000000 0.000000 0.000000 0.000000 0.000000 0.000000 0.000000 0.000000 0.000000 0.000000 0.000000 0.000000 0.000000 0.000000 0.000000 0.000000 0.000000 0.000000 0.000000 0.000000 0.000000 0.000000 0.000000 0.000000 0.000000 0.000000 0.000000 0.000000 0.000000 0.000000 0.000000 0.000000 0.000000 0.000000 0.000000 0.000000 0.000000 0.000000 0.000000 0.000000 0.000000 0.000000 0.000000 0.000000 0.000000 0.000000 0.000000 0.000000 0.000000 0.000000 0.000000 0.000000 0.000000 0.000000 0.000000 0.000000 0.000000 0.000000 0.000000 0.000000 0.000000 0.000000 0.000000 0.000000 0.000000 0.000000 0.000000 0.000000 0.000000 0.000000 0.000000 0.000000 0.000000 0.000000 0.000000 0.000000 0.000000 0.000000 0.000000 0.000000 0.000000 0.000000 0.000000 0.000000 0.000000 0.000000 0.000000 0.000000 0.000000 0.000000 0.000000 0.000000 0.000000 0.000000 0.000000 0.000000 0.000000 0.000000 0.000000 0.000000 0.000000 0.000000 0.000000 0.000000 0.000000 0.000000 0.000000 0.000000 0.000000 0.000000 0.000000 0.000000 0.000000 0.000000 0.000000 0.000000 0.000000 0.000000 0.000000 0.000000 0.000000 0.000000 0.000000 0.000000 0.000000 0.000000 0.000000 0.000000 0.000000 0.000000 0.000000 0.000000 0.000000 0.000000 0.000000 0.000000 0.000000 0.000000 0.000000 0.000000 0.000000 0.000000 0.000000 0.000000 0.000000 0.000000 0.000000 0.000000 0.000000 0.000000 0.000000 0.000000 0.000000 0.000000 0.000000 0.000000 0.000000 0.000000 0.000000 0.000000 0.000000 0.000000 0.000000 0.000000 0.000000 0.630683 0.000000 0.000000 0.000000 0.000000 0.000000 0.000000 0.000000 0.000000 0.000000 0.000000 0.000000 0.000000 0.000000 0.000000 0.000000 0.000000 0.000000 0.000000 0.000000 0.000000 0.000000 0.000000 0.000000 0.000000 0.000000 0.000000 0.000000 0.000000 0.000000 0.000000 0.000000 0.000000 0.000000 0.000000 0.000000 0.000000 0.000000 0.000000 0.041687 0.000000 0.000000 0.000000 0.000000 0.000000 0.000000 0.000000 0.000000 0.000000 0.000000 0.000000 0.000000 0.000000 0.000000 0.000000 0.000000 0.000000 0.000000 0.000000 0.000000 0.000000 0.000000 0.000000 0.000000 0.000000 0.000000 0.000000 0.000000 0.000000 0.000000 0.000000 0.000000 0.000000 0.000000 0.000000 




Total_objective=
114314.315872
Best_SOL_TIME=
6.397000
BEST_KNOWN=
1073741824.000
ComputeTime=
95.30
Route_num=
29
Routes_len=
17131.626
Total_travel_time=
17131.63
Total_service_time=
107155.14
Total_early_time=
9702.20
Total_late_time=
16.07


StartTemperarture=20.000   
CoolRatio=0.990000  
Num_loops=500  
VoronoiRank=1 
Border_VK=0
